p cnf 966 2481
51 -2 -1 0
-51 2 0
-51 1 0
52 -51 -3 0
-52 51 0
-52 3 0
53 -699 -4 0
-53 699 0
-53 4 0
54 -53 -6 0
-54 53 0
-54 6 0
55 -700 -701 0
-55 700 0
-55 701 0
56 -8 -7 0
-56 8 0
-56 7 0
57 -56 -702 0
-57 56 0
-57 702 0
58 -703 -55 0
-58 703 0
-58 55 0
59 -11 -10 0
-59 11 0
-59 10 0
60 -59 -704 0
-60 59 0
-60 704 0
61 -705 -58 0
-61 705 0
-61 58 0
62 -12 -10 0
-62 12 0
-62 10 0
63 -62 -706 0
-63 62 0
-63 706 0
64 -707 -61 0
-64 707 0
-64 61 0
65 -12 -708 0
-65 12 0
-65 708 0
66 -65 -14 0
-66 65 0
-66 14 0
67 -709 -64 0
-67 709 0
-67 64 0
68 -710 -711 0
-68 710 0
-68 711 0
69 -68 -16 0
-69 68 0
-69 16 0
70 -712 -67 0
-70 712 0
-70 67 0
71 -713 -17 0
-71 713 0
-71 17 0
72 -71 -10 0
-72 71 0
-72 10 0
73 -714 -70 0
-73 714 0
-73 70 0
74 -715 -699 0
-74 715 0
-74 699 0
75 -74 -20 0
-75 74 0
-75 20 0
76 -716 -73 0
-76 716 0
-76 73 0
77 -717 -718 0
-77 717 0
-77 718 0
78 -77 -11 0
-78 77 0
-78 11 0
79 -719 -76 0
-79 719 0
-79 76 0
80 -24 -23 0
-80 24 0
-80 23 0
81 -80 -25 0
-81 80 0
-81 25 0
82 -720 -79 0
-82 720 0
-82 79 0
83 -721 -722 0
-83 721 0
-83 722 0
84 -83 -28 0
-84 83 0
-84 28 0
85 -723 -82 0
-85 723 0
-85 82 0
86 -724 -26 0
-86 724 0
-86 26 0
87 -86 -1 0
-87 86 0
-87 1 0
88 -725 -85 0
-88 725 0
-88 85 0
89 -726 -22 0
-89 726 0
-89 22 0
90 -89 -2 0
-90 89 0
-90 2 0
91 -727 -88 0
-91 727 0
-91 88 0
92 -31 -728 0
-92 31 0
-92 728 0
93 -92 -32 0
-93 92 0
-93 32 0
94 -729 -91 0
-94 729 0
-94 91 0
95 -730 -731 0
-95 730 0
-95 731 0
96 -95 -732 0
-96 95 0
-96 732 0
97 -733 -94 0
-97 733 0
-97 94 0
98 -734 -710 0
-98 734 0
-98 710 0
99 -98 -11 0
-99 98 0
-99 11 0
100 -735 -97 0
-100 735 0
-100 97 0
101 -33 -736 0
-101 33 0
-101 736 0
102 -101 -20 0
-102 101 0
-102 20 0
103 -737 -100 0
-103 737 0
-103 100 0
104 -36 -24 0
-104 36 0
-104 24 0
105 -104 -710 0
-105 104 0
-105 710 0
106 -738 -103 0
-106 738 0
-106 103 0
107 -12 -739 0
-107 12 0
-107 739 0
108 -107 -6 0
-108 107 0
-108 6 0
109 -740 -106 0
-109 740 0
-109 106 0
110 -721 -19 0
-110 721 0
-110 19 0
111 -110 -706 0
-111 110 0
-111 706 0
112 -741 -109 0
-112 741 0
-112 109 0
113 -37 -15 0
-113 37 0
-113 15 0
114 -113 -742 0
-114 113 0
-114 742 0
115 -743 -112 0
-115 743 0
-115 112 0
116 -11 -699 0
-116 11 0
-116 699 0
117 -116 -38 0
-117 116 0
-117 38 0
118 -744 -115 0
-118 744 0
-118 115 0
119 -745 -710 0
-119 745 0
-119 710 0
120 -119 -746 0
-120 119 0
-120 746 0
121 -747 -118 0
-121 747 0
-121 118 0
122 -37 -26 0
-122 37 0
-122 26 0
123 -122 -8 0
-123 122 0
-123 8 0
124 -748 -121 0
-124 748 0
-124 121 0
125 -728 -749 0
-125 728 0
-125 749 0
126 -125 -750 0
-126 125 0
-126 750 0
127 -751 -124 0
-127 751 0
-127 124 0
128 -62 -704 0
-128 62 0
-128 704 0
129 -752 -127 0
-129 752 0
-129 127 0
130 -41 -753 0
-130 41 0
-130 753 0
131 -130 -754 0
-131 130 0
-131 754 0
132 -755 -129 0
-132 755 0
-132 129 0
133 -721 -26 0
-133 721 0
-133 26 0
134 -133 -756 0
-134 133 0
-134 756 0
135 -757 -132 0
-135 757 0
-135 132 0
136 -33 -717 0
-136 33 0
-136 717 0
137 -136 -702 0
-137 136 0
-137 702 0
138 -758 -135 0
-138 758 0
-138 135 0
139 -759 -6 0
-139 759 0
-139 6 0
140 -139 -2 0
-140 139 0
-140 2 0
141 -760 -138 0
-141 760 0
-141 138 0
142 -42 -708 0
-142 42 0
-142 708 0
143 -142 -43 0
-143 142 0
-143 43 0
144 -761 -141 0
-144 761 0
-144 141 0
145 -26 -762 0
-145 26 0
-145 762 0
146 -145 -27 0
-146 145 0
-146 27 0
147 -763 -144 0
-147 763 0
-147 144 0
148 -732 -5 0
-148 732 0
-148 5 0
149 -148 -3 0
-149 148 0
-149 3 0
150 -764 -147 0
-150 764 0
-150 147 0
151 -44 -713 0
-151 44 0
-151 713 0
152 -151 -765 0
-152 151 0
-152 765 0
153 -766 -150 0
-153 766 0
-153 150 0
154 -23 -718 0
-154 23 0
-154 718 0
155 -154 -31 0
-155 154 0
-155 31 0
156 -767 -153 0
-156 767 0
-156 153 0
157 -45 -739 0
-157 45 0
-157 739 0
158 -157 -756 0
-158 157 0
-158 756 0
159 -768 -156 0
-159 768 0
-159 156 0
160 -753 -739 0
-160 753 0
-160 739 0
161 -160 -13 0
-161 160 0
-161 13 0
162 -769 -159 0
-162 769 0
-162 159 0
163 -42 -721 0
-163 42 0
-163 721 0
164 -163 -746 0
-164 163 0
-164 746 0
165 -770 -162 0
-165 770 0
-165 162 0
166 -21 -715 0
-166 21 0
-166 715 0
167 -166 -710 0
-167 166 0
-167 710 0
168 -771 -165 0
-168 771 0
-168 165 0
169 -772 -708 0
-169 772 0
-169 708 0
170 -169 -34 0
-170 169 0
-170 34 0
171 -773 -168 0
-171 773 0
-171 168 0
172 -17 -5 0
-172 17 0
-172 5 0
173 -172 -16 0
-173 172 0
-173 16 0
174 -774 -171 0
-174 774 0
-174 171 0
175 -775 -15 0
-175 775 0
-175 15 0
176 -175 -756 0
-176 175 0
-176 756 0
177 -776 -174 0
-177 776 0
-177 174 0
178 -777 -718 0
-178 777 0
-178 718 0
179 -178 -731 0
-179 178 0
-179 731 0
180 -778 -177 0
-180 778 0
-180 177 0
181 -31 -711 0
-181 31 0
-181 711 0
182 -181 -708 0
-182 181 0
-182 708 0
183 -779 -180 0
-183 779 0
-183 180 0
184 -772 -710 0
-184 772 0
-184 710 0
185 -184 -38 0
-185 184 0
-185 38 0
186 -780 -183 0
-186 780 0
-186 183 0
187 -772 -7 0
-187 772 0
-187 7 0
188 -187 -706 0
-188 187 0
-188 706 0
189 -781 -186 0
-189 781 0
-189 186 0
190 -29 -765 0
-190 29 0
-190 765 0
191 -190 -742 0
-191 190 0
-191 742 0
192 -782 -189 0
-192 782 0
-192 189 0
193 -46 -31 0
-193 46 0
-193 31 0
194 -193 -34 0
-194 193 0
-194 34 0
195 -783 -192 0
-195 783 0
-195 192 0
196 -745 -30 0
-196 745 0
-196 30 0
197 -196 -734 0
-197 196 0
-197 734 0
198 -784 -195 0
-198 784 0
-198 195 0
199 -722 -718 0
-199 722 0
-199 718 0
200 -199 -704 0
-200 199 0
-200 704 0
201 -785 -198 0
-201 785 0
-201 198 0
202 -47 -715 0
-202 47 0
-202 715 0
203 -202 -786 0
-203 202 0
-203 786 0
204 -787 -201 0
-204 787 0
-204 201 0
205 -29 -10 0
-205 29 0
-205 10 0
206 -205 -742 0
-206 205 0
-206 742 0
207 -788 -204 0
-207 788 0
-207 204 0
208 -48 -30 0
-208 48 0
-208 30 0
209 -208 -710 0
-209 208 0
-209 710 0
210 -789 -207 0
-210 789 0
-210 207 0
211 -46 -26 0
-211 46 0
-211 26 0
212 -211 -1 0
-212 211 0
-212 1 0
213 -790 -210 0
-213 790 0
-213 210 0
214 -49 -777 0
-214 49 0
-214 777 0
215 -214 -1 0
-215 214 0
-215 1 0
216 -791 -213 0
-216 791 0
-216 213 0
217 -792 -724 0
-217 792 0
-217 724 0
218 -217 -48 0
-218 217 0
-218 48 0
219 -793 -216 0
-219 793 0
-219 216 0
220 -46 -728 0
-220 46 0
-220 728 0
221 -220 -717 0
-221 220 0
-221 717 0
222 -794 -219 0
-222 794 0
-222 219 0
223 -777 -795 0
-223 777 0
-223 795 0
224 -223 -14 0
-224 223 0
-224 14 0
225 -796 -222 0
-225 796 0
-225 222 0
226 -23 -7 0
-226 23 0
-226 7 0
227 -226 -12 0
-227 226 0
-227 12 0
228 -797 -225 0
-228 797 0
-228 225 0
229 -798 -15 0
-229 798 0
-229 15 0
230 -229 -799 0
-230 229 0
-230 799 0
231 -800 -228 0
-231 800 0
-231 228 0
232 -745 -5 0
-232 745 0
-232 5 0
233 -232 -732 0
-233 232 0
-233 732 0
234 -801 -231 0
-234 801 0
-234 231 0
235 -777 -13 0
-235 777 0
-235 13 0
236 -235 -702 0
-236 235 0
-236 702 0
237 -802 -234 0
-237 802 0
-237 234 0
238 -792 -26 0
-238 792 0
-238 26 0
239 -238 -32 0
-239 238 0
-239 32 0
240 -803 -237 0
-240 803 0
-240 237 0
241 -804 -2 0
-241 804 0
-241 2 0
242 -241 -38 0
-242 241 0
-242 38 0
243 -805 -240 0
-243 805 0
-243 240 0
244 -37 -713 0
-244 37 0
-244 713 0
245 -244 -718 0
-245 244 0
-245 718 0
246 -806 -243 0
-246 806 0
-246 243 0
247 -23 -699 0
-247 23 0
-247 699 0
248 -247 -739 0
-248 247 0
-248 739 0
249 -807 -246 0
-249 807 0
-249 246 0
250 -34 -749 0
-250 34 0
-250 749 0
251 -250 -756 0
-251 250 0
-251 756 0
252 -808 -249 0
-252 808 0
-252 249 0
253 -45 -11 0
-253 45 0
-253 11 0
254 -253 -772 0
-254 253 0
-254 772 0
255 -809 -252 0
-255 809 0
-255 252 0
256 -754 -717 0
-256 754 0
-256 717 0
257 -256 -3 0
-257 256 0
-257 3 0
258 -810 -255 0
-258 810 0
-258 255 0
259 -42 -762 0
-259 42 0
-259 762 0
260 -259 -2 0
-260 259 0
-260 2 0
261 -811 -258 0
-261 811 0
-261 258 0
262 -745 -31 0
-262 745 0
-262 31 0
263 -262 -34 0
-263 262 0
-263 34 0
264 -812 -261 0
-264 812 0
-264 261 0
265 -777 -713 0
-265 777 0
-265 713 0
266 -265 -40 0
-266 265 0
-266 40 0
267 -813 -264 0
-267 813 0
-267 264 0
268 -45 -715 0
-268 45 0
-268 715 0
269 -268 -1 0
-269 268 0
-269 1 0
270 -814 -267 0
-270 814 0
-270 267 0
271 -804 -31 0
-271 804 0
-271 31 0
272 -271 -739 0
-272 271 0
-272 739 0
273 -815 -270 0
-273 815 0
-273 270 0
274 -816 -23 0
-274 816 0
-274 23 0
275 -274 -750 0
-275 274 0
-275 750 0
276 -817 -273 0
-276 817 0
-276 273 0
277 -23 -759 0
-277 23 0
-277 759 0
278 -277 -39 0
-278 277 0
-278 39 0
279 -818 -276 0
-279 818 0
-279 276 0
280 -819 -30 0
-280 819 0
-280 30 0
281 -280 -704 0
-281 280 0
-281 704 0
282 -820 -279 0
-282 820 0
-282 279 0
283 -46 -7 0
-283 46 0
-283 7 0
284 -283 -798 0
-284 283 0
-284 798 0
285 -821 -282 0
-285 821 0
-285 282 0
286 -786 -715 0
-286 786 0
-286 715 0
287 -286 -20 0
-287 286 0
-287 20 0
288 -822 -285 0
-288 822 0
-288 285 0
289 -40 -10 0
-289 40 0
-289 10 0
290 -289 -25 0
-290 289 0
-290 25 0
291 -823 -288 0
-291 823 0
-291 288 0
292 -798 -23 0
-292 798 0
-292 23 0
293 -292 -14 0
-293 292 0
-293 14 0
294 -824 -291 0
-294 824 0
-294 291 0
295 -50 -29 0
-295 50 0
-295 29 0
296 -295 -722 0
-296 295 0
-296 722 0
297 -825 -294 0
-297 825 0
-297 294 0
298 -726 -21 0
-298 726 0
-298 21 0
299 -298 -739 0
-299 298 0
-299 739 0
300 -826 -297 0
-300 826 0
-300 297 0
301 -765 -739 0
-301 765 0
-301 739 0
302 -301 -38 0
-302 301 0
-302 38 0
303 -827 -300 0
-303 827 0
-303 300 0
304 -792 -731 0
-304 792 0
-304 731 0
305 -304 -799 0
-305 304 0
-305 799 0
306 -828 -303 0
-306 828 0
-306 303 0
307 -816 -704 0
-307 816 0
-307 704 0
308 -307 -25 0
-308 307 0
-308 25 0
309 -829 -306 0
-309 829 0
-309 306 0
310 -792 -2 0
-310 792 0
-310 2 0
311 -310 -706 0
-311 310 0
-311 706 0
312 -830 -309 0
-312 830 0
-312 309 0
313 -83 -736 0
-313 83 0
-313 736 0
314 -831 -312 0
-314 831 0
-314 312 0
315 -772 -18 0
-315 772 0
-315 18 0
316 -315 -730 0
-316 315 0
-316 730 0
317 -832 -314 0
-317 832 0
-317 314 0
318 -44 -798 0
-318 44 0
-318 798 0
319 -318 -704 0
-319 318 0
-319 704 0
320 -833 -317 0
-320 833 0
-320 317 0
321 -718 -14 0
-321 718 0
-321 14 0
322 -321 -799 0
-322 321 0
-322 799 0
323 -834 -320 0
-323 834 0
-323 320 0
324 -835 -702 0
-324 835 0
-324 702 0
325 -324 -20 0
-325 324 0
-325 20 0
326 -836 -323 0
-326 836 0
-326 323 0
327 -50 -48 0
-327 50 0
-327 48 0
328 -327 -12 0
-328 327 0
-328 12 0
329 -837 -326 0
-329 837 0
-329 326 0
330 -804 -10 0
-330 804 0
-330 10 0
331 -330 -40 0
-331 330 0
-331 40 0
332 -838 -329 0
-332 838 0
-332 329 0
333 -732 -19 0
-333 732 0
-333 19 0
334 -333 -25 0
-334 333 0
-334 25 0
335 -839 -332 0
-335 839 0
-335 332 0
336 -253 -33 0
-336 253 0
-336 33 0
337 -840 -335 0
-337 840 0
-337 335 0
338 -706 -12 0
-338 706 0
-338 12 0
339 -338 -25 0
-339 338 0
-339 25 0
340 -841 -337 0
-340 841 0
-340 337 0
341 -13 -704 0
-341 13 0
-341 704 0
342 -341 -20 0
-342 341 0
-342 20 0
343 -842 -340 0
-343 842 0
-343 340 0
344 -34 -702 0
-344 34 0
-344 702 0
345 -344 -20 0
-345 344 0
-345 20 0
346 -843 -343 0
-346 843 0
-346 343 0
347 -30 -13 0
-347 30 0
-347 13 0
348 -347 -43 0
-348 347 0
-348 43 0
349 -844 -346 0
-349 844 0
-349 346 0
350 -731 -17 0
-350 731 0
-350 17 0
351 -350 -38 0
-351 350 0
-351 38 0
352 -845 -349 0
-352 845 0
-352 349 0
353 -49 -816 0
-353 49 0
-353 816 0
354 -353 -14 0
-354 353 0
-354 14 0
355 -846 -352 0
-355 846 0
-355 352 0
356 -26 -708 0
-356 26 0
-356 708 0
357 -356 -2 0
-357 356 0
-357 2 0
358 -847 -355 0
-358 847 0
-358 355 0
359 -848 -2 0
-359 848 0
-359 2 0
360 -359 -702 0
-360 359 0
-360 702 0
361 -849 -358 0
-361 849 0
-361 358 0
362 -37 -722 0
-362 37 0
-362 722 0
363 -362 -9 0
-363 362 0
-363 9 0
364 -850 -361 0
-364 850 0
-364 361 0
365 -765 -706 0
-365 765 0
-365 706 0
366 -365 -34 0
-366 365 0
-366 34 0
367 -851 -364 0
-367 851 0
-367 364 0
368 -41 -40 0
-368 41 0
-368 40 0
369 -368 -730 0
-369 368 0
-369 730 0
370 -852 -367 0
-370 852 0
-370 367 0
371 -792 -853 0
-371 792 0
-371 853 0
372 -371 -772 0
-372 371 0
-372 772 0
373 -854 -370 0
-373 854 0
-373 370 0
374 -855 -745 0
-374 855 0
-374 745 0
375 -374 -11 0
-375 374 0
-375 11 0
376 -856 -373 0
-376 856 0
-376 373 0
377 -731 -724 0
-377 731 0
-377 724 0
378 -377 -35 0
-378 377 0
-378 35 0
379 -857 -376 0
-379 857 0
-379 376 0
380 -50 -736 0
-380 50 0
-380 736 0
381 -380 -742 0
-381 380 0
-381 742 0
382 -858 -379 0
-382 858 0
-382 379 0
383 -835 -713 0
-383 835 0
-383 713 0
384 -383 -819 0
-384 383 0
-384 819 0
385 -859 -382 0
-385 859 0
-385 382 0
386 -19 -1 0
-386 19 0
-386 1 0
387 -386 -754 0
-387 386 0
-387 754 0
388 -860 -385 0
-388 860 0
-388 385 0
389 -724 -722 0
-389 724 0
-389 722 0
390 -389 -16 0
-390 389 0
-390 16 0
391 -861 -388 0
-391 861 0
-391 388 0
392 -732 -708 0
-392 732 0
-392 708 0
393 -392 -742 0
-393 392 0
-393 742 0
394 -862 -391 0
-394 862 0
-394 391 0
395 -804 -46 0
-395 804 0
-395 46 0
396 -395 -786 0
-396 395 0
-396 786 0
397 -863 -394 0
-397 863 0
-397 394 0
398 -36 -5 0
-398 36 0
-398 5 0
399 -398 -15 0
-399 398 0
-399 15 0
400 -864 -397 0
-400 864 0
-400 397 0
401 -753 -713 0
-401 753 0
-401 713 0
402 -401 -47 0
-402 401 0
-402 47 0
403 -865 -400 0
-403 865 0
-403 400 0
404 -40 -30 0
-404 40 0
-404 30 0
405 -404 -3 0
-405 404 0
-405 3 0
406 -866 -403 0
-406 866 0
-406 403 0
407 -44 -10 0
-407 44 0
-407 10 0
408 -407 -47 0
-408 407 0
-408 47 0
409 -867 -406 0
-409 867 0
-409 406 0
410 -7 -6 0
-410 7 0
-410 6 0
411 -410 -750 0
-411 410 0
-411 750 0
412 -868 -409 0
-412 868 0
-412 409 0
413 -50 -853 0
-413 50 0
-413 853 0
414 -413 -795 0
-414 413 0
-414 795 0
415 -869 -412 0
-415 869 0
-415 412 0
416 -40 -711 0
-416 40 0
-416 711 0
417 -416 -706 0
-417 416 0
-417 706 0
418 -870 -415 0
-418 870 0
-418 415 0
419 -722 -17 0
-419 722 0
-419 17 0
420 -419 -745 0
-420 419 0
-420 745 0
421 -871 -418 0
-421 871 0
-421 418 0
422 -45 -37 0
-422 45 0
-422 37 0
423 -422 -742 0
-423 422 0
-423 742 0
424 -872 -421 0
-424 872 0
-424 421 0
425 -26 -873 0
-425 26 0
-425 873 0
426 -425 -33 0
-426 425 0
-426 33 0
427 -874 -424 0
-427 874 0
-427 424 0
428 -819 -718 0
-428 819 0
-428 718 0
429 -428 -12 0
-429 428 0
-429 12 0
430 -875 -427 0
-430 875 0
-430 427 0
431 -754 -726 0
-431 754 0
-431 726 0
432 -431 -702 0
-432 431 0
-432 702 0
433 -876 -430 0
-433 876 0
-433 430 0
434 -731 -19 0
-434 731 0
-434 19 0
435 -434 -9 0
-435 434 0
-435 9 0
436 -877 -433 0
-436 877 0
-436 433 0
437 -734 -11 0
-437 734 0
-437 11 0
438 -437 -742 0
-438 437 0
-438 742 0
439 -878 -436 0
-439 878 0
-439 436 0
440 -745 -699 0
-440 745 0
-440 699 0
441 -440 -819 0
-441 440 0
-441 819 0
442 -879 -439 0
-442 879 0
-442 439 0
443 -819 -795 0
-443 819 0
-443 795 0
444 -443 -16 0
-444 443 0
-444 16 0
445 -880 -442 0
-445 880 0
-445 442 0
446 -28 -718 0
-446 28 0
-446 718 0
447 -446 -14 0
-447 446 0
-447 14 0
448 -881 -445 0
-448 881 0
-448 445 0
449 -795 -721 0
-449 795 0
-449 721 0
450 -449 -9 0
-450 449 0
-450 9 0
451 -882 -448 0
-451 882 0
-451 448 0
452 -734 -27 0
-452 734 0
-452 27 0
453 -452 -708 0
-453 452 0
-453 708 0
454 -883 -451 0
-454 883 0
-454 451 0
455 -706 -759 0
-455 706 0
-455 759 0
456 -455 -754 0
-456 455 0
-456 754 0
457 -884 -454 0
-457 884 0
-457 454 0
458 -718 -18 0
-458 718 0
-458 18 0
459 -458 -12 0
-459 458 0
-459 12 0
460 -885 -457 0
-460 885 0
-460 457 0
461 -835 -772 0
-461 835 0
-461 772 0
462 -461 -16 0
-462 461 0
-462 16 0
463 -886 -460 0
-463 886 0
-463 460 0
464 -38 -32 0
-464 38 0
-464 32 0
465 -464 -742 0
-465 464 0
-465 742 0
466 -887 -463 0
-466 887 0
-466 463 0
467 -804 -19 0
-467 804 0
-467 19 0
468 -467 -765 0
-468 467 0
-468 765 0
469 -888 -466 0
-469 888 0
-469 466 0
470 -47 -34 0
-470 47 0
-470 34 0
471 -470 -25 0
-471 470 0
-471 25 0
472 -889 -469 0
-472 889 0
-472 469 0
473 -18 -10 0
-473 18 0
-473 10 0
474 -473 -699 0
-474 473 0
-474 699 0
475 -890 -472 0
-475 890 0
-475 472 0
476 -49 -23 0
-476 49 0
-476 23 0
477 -476 -6 0
-477 476 0
-477 6 0
478 -891 -475 0
-478 891 0
-478 475 0
479 -35 -731 0
-479 35 0
-479 731 0
480 -479 -3 0
-480 479 0
-480 3 0
481 -892 -478 0
-481 892 0
-481 478 0
482 -753 -15 0
-482 753 0
-482 15 0
483 -482 -739 0
-483 482 0
-483 739 0
484 -893 -481 0
-484 893 0
-484 481 0
485 -753 -7 0
-485 753 0
-485 7 0
486 -485 -14 0
-486 485 0
-486 14 0
487 -894 -484 0
-487 894 0
-487 484 0
488 -730 -12 0
-488 730 0
-488 12 0
489 -488 -20 0
-489 488 0
-489 20 0
490 -895 -487 0
-490 895 0
-490 487 0
491 -44 -18 0
-491 44 0
-491 18 0
492 -491 -2 0
-492 491 0
-492 2 0
493 -896 -490 0
-493 896 0
-493 490 0
494 -49 -46 0
-494 49 0
-494 46 0
495 -494 -14 0
-495 494 0
-495 14 0
496 -897 -493 0
-496 897 0
-496 493 0
497 -775 -749 0
-497 775 0
-497 749 0
498 -497 -36 0
-498 497 0
-498 36 0
499 -898 -496 0
-499 898 0
-499 496 0
500 -29 -21 0
-500 29 0
-500 21 0
501 -500 -731 0
-501 500 0
-501 731 0
502 -899 -499 0
-502 899 0
-502 499 0
503 -722 -14 0
-503 722 0
-503 14 0
504 -503 -772 0
-504 503 0
-504 772 0
505 -900 -502 0
-505 900 0
-505 502 0
506 -715 -853 0
-506 715 0
-506 853 0
507 -506 -765 0
-507 506 0
-507 765 0
508 -901 -505 0
-508 901 0
-508 505 0
509 -819 -799 0
-509 819 0
-509 799 0
510 -509 -9 0
-510 509 0
-510 9 0
511 -902 -508 0
-511 902 0
-511 508 0
512 -44 -739 0
-512 44 0
-512 739 0
513 -512 -3 0
-513 512 0
-513 3 0
514 -903 -511 0
-514 903 0
-514 511 0
515 -12 -853 0
-515 12 0
-515 853 0
516 -515 -13 0
-516 515 0
-516 13 0
517 -904 -514 0
-517 904 0
-517 514 0
518 -49 -26 0
-518 49 0
-518 26 0
519 -518 -30 0
-519 518 0
-519 30 0
520 -905 -517 0
-520 905 0
-520 517 0
521 -39 -835 0
-521 39 0
-521 835 0
522 -521 -8 0
-522 521 0
-522 8 0
523 -906 -520 0
-523 906 0
-523 520 0
524 -855 -29 0
-524 855 0
-524 29 0
525 -524 -742 0
-525 524 0
-525 742 0
526 -907 -523 0
-526 907 0
-526 523 0
527 -715 -908 0
-527 715 0
-527 908 0
528 -527 -702 0
-528 527 0
-528 702 0
529 -909 -526 0
-529 909 0
-529 526 0
530 -45 -35 0
-530 45 0
-530 35 0
531 -530 -14 0
-531 530 0
-531 14 0
532 -910 -529 0
-532 910 0
-532 529 0
533 -754 -21 0
-533 754 0
-533 21 0
534 -533 -3 0
-534 533 0
-534 3 0
535 -911 -532 0
-535 911 0
-535 532 0
536 -48 -26 0
-536 48 0
-536 26 0
537 -536 -873 0
-537 536 0
-537 873 0
538 -912 -535 0
-538 912 0
-538 535 0
539 -762 -21 0
-539 762 0
-539 21 0
540 -539 -47 0
-540 539 0
-540 47 0
541 -913 -538 0
-541 913 0
-541 538 0
542 -722 -908 0
-542 722 0
-542 908 0
543 -542 -24 0
-543 542 0
-543 24 0
544 -914 -541 0
-544 914 0
-544 541 0
545 -848 -728 0
-545 848 0
-545 728 0
546 -545 -736 0
-546 545 0
-546 736 0
547 -915 -544 0
-547 915 0
-547 544 0
548 -798 -835 0
-548 798 0
-548 835 0
549 -548 -13 0
-549 548 0
-549 13 0
550 -916 -547 0
-550 916 0
-550 547 0
551 -732 -722 0
-551 732 0
-551 722 0
552 -551 -754 0
-552 551 0
-552 754 0
553 -917 -550 0
-553 917 0
-553 550 0
554 -835 -853 0
-554 835 0
-554 853 0
555 -554 -12 0
-555 554 0
-555 12 0
556 -918 -553 0
-556 918 0
-556 553 0
557 -49 -745 0
-557 49 0
-557 745 0
558 -557 -3 0
-558 557 0
-558 3 0
559 -919 -556 0
-559 919 0
-559 556 0
560 -722 -13 0
-560 722 0
-560 13 0
561 -560 -746 0
-561 560 0
-561 746 0
562 -920 -559 0
-562 920 0
-562 559 0
563 -718 -873 0
-563 718 0
-563 873 0
564 -563 -33 0
-564 563 0
-564 33 0
565 -921 -562 0
-565 921 0
-565 562 0
566 -41 -1 0
-566 41 0
-566 1 0
567 -566 -746 0
-567 566 0
-567 746 0
568 -922 -565 0
-568 922 0
-568 565 0
569 -28 -6 0
-569 28 0
-569 6 0
570 -569 -32 0
-570 569 0
-570 32 0
571 -923 -568 0
-571 923 0
-571 568 0
572 -777 -27 0
-572 777 0
-572 27 0
573 -572 -13 0
-573 572 0
-573 13 0
574 -924 -571 0
-574 924 0
-574 571 0
575 -726 -1 0
-575 726 0
-575 1 0
576 -575 -772 0
-576 575 0
-576 772 0
577 -925 -574 0
-577 925 0
-577 574 0
578 -45 -19 0
-578 45 0
-578 19 0
579 -578 -46 0
-579 578 0
-579 46 0
580 -926 -577 0
-580 926 0
-580 577 0
581 -27 -24 0
-581 27 0
-581 24 0
582 -581 -795 0
-582 581 0
-582 795 0
583 -927 -580 0
-583 927 0
-583 580 0
584 -775 -13 0
-584 775 0
-584 13 0
585 -584 -16 0
-585 584 0
-585 16 0
586 -928 -583 0
-586 928 0
-586 583 0
587 -39 -29 0
-587 39 0
-587 29 0
588 -587 -819 0
-588 587 0
-588 819 0
589 -929 -586 0
-589 929 0
-589 586 0
590 -819 -762 0
-590 819 0
-590 762 0
591 -590 -34 0
-591 590 0
-591 34 0
592 -930 -589 0
-592 930 0
-592 589 0
593 -718 -4 0
-593 718 0
-593 4 0
594 -593 -730 0
-594 593 0
-594 730 0
595 -931 -592 0
-595 931 0
-595 592 0
596 -786 -11 0
-596 786 0
-596 11 0
597 -596 -20 0
-597 596 0
-597 20 0
598 -932 -595 0
-598 932 0
-598 595 0
599 -777 -17 0
-599 777 0
-599 17 0
600 -599 -745 0
-600 599 0
-600 745 0
601 -933 -598 0
-601 933 0
-601 598 0
602 -731 -7 0
-602 731 0
-602 7 0
603 -602 -704 0
-603 602 0
-603 704 0
604 -934 -601 0
-604 934 0
-604 601 0
605 -736 -8 0
-605 736 0
-605 8 0
606 -605 -5 0
-606 605 0
-606 5 0
607 -935 -604 0
-607 935 0
-607 604 0
608 -31 -27 0
-608 31 0
-608 27 0
609 -608 -47 0
-609 608 0
-609 47 0
610 -936 -607 0
-610 936 0
-610 607 0
611 -46 -798 0
-611 46 0
-611 798 0
612 -611 -9 0
-612 611 0
-612 9 0
613 -937 -610 0
-613 937 0
-613 610 0
614 -777 -41 0
-614 777 0
-614 41 0
615 -614 -43 0
-615 614 0
-615 43 0
616 -938 -613 0
-616 938 0
-616 613 0
617 -33 -19 0
-617 33 0
-617 19 0
618 -617 -38 0
-618 617 0
-618 38 0
619 -939 -616 0
-619 939 0
-619 616 0
620 -49 -39 0
-620 49 0
-620 39 0
621 -620 -746 0
-621 620 0
-621 746 0
622 -940 -619 0
-622 940 0
-622 619 0
623 -798 -29 0
-623 798 0
-623 29 0
624 -623 -873 0
-624 623 0
-624 873 0
625 -941 -622 0
-625 941 0
-625 622 0
626 -745 -21 0
-626 745 0
-626 21 0
627 -626 -706 0
-627 626 0
-627 706 0
628 -942 -625 0
-628 942 0
-628 625 0
629 -730 -25 0
-629 730 0
-629 25 0
630 -629 -9 0
-630 629 0
-630 9 0
631 -943 -628 0
-631 943 0
-631 628 0
632 -42 -32 0
-632 42 0
-632 32 0
633 -632 -9 0
-633 632 0
-633 9 0
634 -944 -631 0
-634 944 0
-634 631 0
635 -746 -22 0
-635 746 0
-635 22 0
636 -635 -750 0
-636 635 0
-636 750 0
637 -945 -634 0
-637 945 0
-637 634 0
638 -29 -18 0
-638 29 0
-638 18 0
639 -638 -16 0
-639 638 0
-639 16 0
640 -946 -637 0
-640 946 0
-640 637 0
641 -855 -33 0
-641 855 0
-641 33 0
642 -641 -2 0
-642 641 0
-642 2 0
643 -947 -640 0
-643 947 0
-643 640 0
644 -14 -2 0
-644 14 0
-644 2 0
645 -644 -3 0
-645 644 0
-645 3 0
646 -948 -643 0
-646 948 0
-646 643 0
647 -45 -816 0
-647 45 0
-647 816 0
648 -647 -3 0
-648 647 0
-648 3 0
649 -949 -646 0
-649 949 0
-649 646 0
650 -157 -34 0
-650 157 0
-650 34 0
651 -950 -649 0
-651 950 0
-651 649 0
652 -795 -10 0
-652 795 0
-652 10 0
653 -652 -33 0
-653 652 0
-653 33 0
654 -951 -651 0
-654 951 0
-654 651 0
655 -437 -3 0
-655 437 0
-655 3 0
656 -952 -654 0
-656 952 0
-656 654 0
657 -27 -853 0
-657 27 0
-657 853 0
658 -657 -46 0
-658 657 0
-658 46 0
659 -953 -656 0
-659 953 0
-659 656 0
660 -724 -8 0
-660 724 0
-660 8 0
661 -660 -736 0
-661 660 0
-661 736 0
662 -954 -659 0
-662 954 0
-662 659 0
663 -22 -853 0
-663 22 0
-663 853 0
664 -663 -706 0
-664 663 0
-664 706 0
665 -955 -662 0
-665 955 0
-665 662 0
666 -722 -8 0
-666 722 0
-666 8 0
667 -666 -706 0
-667 666 0
-667 706 0
668 -956 -665 0
-668 956 0
-668 665 0
669 -29 -736 0
-669 29 0
-669 736 0
670 -669 -873 0
-670 669 0
-670 873 0
671 -957 -668 0
-671 957 0
-671 668 0
672 -804 -728 0
-672 804 0
-672 728 0
673 -672 -704 0
-673 672 0
-673 704 0
674 -958 -671 0
-674 958 0
-674 671 0
675 -745 -11 0
-675 745 0
-675 11 0
676 -675 -704 0
-676 675 0
-676 704 0
677 -959 -674 0
-677 959 0
-677 674 0
678 -49 -726 0
-678 49 0
-678 726 0
679 -678 -46 0
-679 678 0
-679 46 0
680 -960 -677 0
-680 960 0
-680 677 0
681 -749 -7 0
-681 749 0
-681 7 0
682 -681 -20 0
-682 681 0
-682 20 0
683 -961 -680 0
-683 961 0
-683 680 0
684 -835 -762 0
-684 835 0
-684 762 0
685 -684 -713 0
-685 684 0
-685 713 0
686 -962 -683 0
-686 962 0
-686 683 0
687 -804 -908 0
-687 804 0
-687 908 0
688 -687 -15 0
-688 687 0
-688 15 0
689 -963 -686 0
-689 963 0
-689 686 0
690 -721 -717 0
-690 721 0
-690 717 0
691 -690 -750 0
-691 690 0
-691 750 0
692 -964 -689 0
-692 964 0
-692 689 0
693 -777 -798 0
-693 777 0
-693 798 0
694 -693 -25 0
-694 693 0
-694 25 0
695 -965 -692 0
-695 965 0
-695 692 0
696 -816 -21 0
-696 816 0
-696 21 0
697 -696 -2 0
-697 696 0
-697 2 0
698 -966 -695 0
-698 966 0
-698 695 0
-699 -5 0
699 5 0
-700 -54 0
700 54 0
-701 -52 0
701 52 0
-702 -9 0
702 9 0
-703 -57 0
703 57 0
-704 -2 0
704 2 0
-705 -60 0
705 60 0
-706 -13 0
706 13 0
-707 -63 0
707 63 0
-708 -6 0
708 6 0
-709 -66 0
709 66 0
-710 -15 0
710 15 0
-711 -12 0
711 12 0
-712 -69 0
712 69 0
-713 -18 0
713 18 0
-714 -72 0
714 72 0
-715 -19 0
715 19 0
-716 -75 0
716 75 0
-717 -22 0
717 22 0
-718 -21 0
718 21 0
-719 -78 0
719 78 0
-720 -81 0
720 81 0
-721 -27 0
721 27 0
-722 -26 0
722 26 0
-723 -84 0
723 84 0
-724 -29 0
724 29 0
-725 -87 0
725 87 0
-726 -30 0
726 30 0
-727 -90 0
727 90 0
-728 -10 0
728 10 0
-729 -93 0
729 93 0
-730 -33 0
730 33 0
-731 -31 0
731 31 0
-732 -34 0
732 34 0
-733 -96 0
733 96 0
-734 -35 0
734 35 0
-735 -99 0
735 99 0
-736 -24 0
736 24 0
-737 -102 0
737 102 0
-738 -105 0
738 105 0
-739 -1 0
739 1 0
-740 -108 0
740 108 0
-741 -111 0
741 111 0
-742 -20 0
742 20 0
-743 -114 0
743 114 0
-744 -117 0
744 117 0
-745 -39 0
745 39 0
-746 -25 0
746 25 0
-747 -120 0
747 120 0
-748 -123 0
748 123 0
-749 -8 0
749 8 0
-750 -16 0
750 16 0
-751 -126 0
751 126 0
-752 -128 0
752 128 0
-753 -40 0
753 40 0
-754 -38 0
754 38 0
-755 -131 0
755 131 0
-756 -3 0
756 3 0
-757 -134 0
757 134 0
-758 -137 0
758 137 0
-759 -7 0
759 7 0
-760 -140 0
760 140 0
-761 -143 0
761 143 0
-762 -23 0
762 23 0
-763 -146 0
763 146 0
-764 -149 0
764 149 0
-765 -14 0
765 14 0
-766 -152 0
766 152 0
-767 -155 0
767 155 0
-768 -158 0
768 158 0
-769 -161 0
769 161 0
-770 -164 0
770 164 0
-771 -167 0
771 167 0
-772 -32 0
772 32 0
-773 -170 0
773 170 0
-774 -173 0
774 173 0
-775 -46 0
775 46 0
-776 -176 0
776 176 0
-777 -45 0
777 45 0
-778 -179 0
778 179 0
-779 -182 0
779 182 0
-780 -185 0
780 185 0
-781 -188 0
781 188 0
-782 -191 0
782 191 0
-783 -194 0
783 194 0
-784 -197 0
784 197 0
-785 -200 0
785 200 0
-786 -43 0
786 43 0
-787 -203 0
787 203 0
-788 -206 0
788 206 0
-789 -209 0
789 209 0
-790 -212 0
790 212 0
-791 -215 0
791 215 0
-792 -49 0
792 49 0
-793 -218 0
793 218 0
-794 -221 0
794 221 0
-795 -36 0
795 36 0
-796 -224 0
796 224 0
-797 -227 0
797 227 0
-798 -41 0
798 41 0
-799 -47 0
799 47 0
-800 -230 0
800 230 0
-801 -233 0
801 233 0
-802 -236 0
802 236 0
-803 -239 0
803 239 0
-804 -50 0
804 50 0
-805 -242 0
805 242 0
-806 -245 0
806 245 0
-807 -248 0
807 248 0
-808 -251 0
808 251 0
-809 -254 0
809 254 0
-810 -257 0
810 257 0
-811 -260 0
811 260 0
-812 -263 0
812 263 0
-813 -266 0
813 266 0
-814 -269 0
814 269 0
-815 -272 0
815 272 0
-816 -28 0
816 28 0
-817 -275 0
817 275 0
-818 -278 0
818 278 0
-819 -48 0
819 48 0
-820 -281 0
820 281 0
-821 -284 0
821 284 0
-822 -287 0
822 287 0
-823 -290 0
823 290 0
-824 -293 0
824 293 0
-825 -296 0
825 296 0
-826 -299 0
826 299 0
-827 -302 0
827 302 0
-828 -305 0
828 305 0
-829 -308 0
829 308 0
-830 -311 0
830 311 0
-831 -313 0
831 313 0
-832 -316 0
832 316 0
-833 -319 0
833 319 0
-834 -322 0
834 322 0
-835 -37 0
835 37 0
-836 -325 0
836 325 0
-837 -328 0
837 328 0
-838 -331 0
838 331 0
-839 -334 0
839 334 0
-840 -336 0
840 336 0
-841 -339 0
841 339 0
-842 -342 0
842 342 0
-843 -345 0
843 345 0
-844 -348 0
844 348 0
-845 -351 0
845 351 0
-846 -354 0
846 354 0
-847 -357 0
847 357 0
-848 -44 0
848 44 0
-849 -360 0
849 360 0
-850 -363 0
850 363 0
-851 -366 0
851 366 0
-852 -369 0
852 369 0
-853 -4 0
853 4 0
-854 -372 0
854 372 0
-855 -42 0
855 42 0
-856 -375 0
856 375 0
-857 -378 0
857 378 0
-858 -381 0
858 381 0
-859 -384 0
859 384 0
-860 -387 0
860 387 0
-861 -390 0
861 390 0
-862 -393 0
862 393 0
-863 -396 0
863 396 0
-864 -399 0
864 399 0
-865 -402 0
865 402 0
-866 -405 0
866 405 0
-867 -408 0
867 408 0
-868 -411 0
868 411 0
-869 -414 0
869 414 0
-870 -417 0
870 417 0
-871 -420 0
871 420 0
-872 -423 0
872 423 0
-873 -11 0
873 11 0
-874 -426 0
874 426 0
-875 -429 0
875 429 0
-876 -432 0
876 432 0
-877 -435 0
877 435 0
-878 -438 0
878 438 0
-879 -441 0
879 441 0
-880 -444 0
880 444 0
-881 -447 0
881 447 0
-882 -450 0
882 450 0
-883 -453 0
883 453 0
-884 -456 0
884 456 0
-885 -459 0
885 459 0
-886 -462 0
886 462 0
-887 -465 0
887 465 0
-888 -468 0
888 468 0
-889 -471 0
889 471 0
-890 -474 0
890 474 0
-891 -477 0
891 477 0
-892 -480 0
892 480 0
-893 -483 0
893 483 0
-894 -486 0
894 486 0
-895 -489 0
895 489 0
-896 -492 0
896 492 0
-897 -495 0
897 495 0
-898 -498 0
898 498 0
-899 -501 0
899 501 0
-900 -504 0
900 504 0
-901 -507 0
901 507 0
-902 -510 0
902 510 0
-903 -513 0
903 513 0
-904 -516 0
904 516 0
-905 -519 0
905 519 0
-906 -522 0
906 522 0
-907 -525 0
907 525 0
-908 -17 0
908 17 0
-909 -528 0
909 528 0
-910 -531 0
910 531 0
-911 -534 0
911 534 0
-912 -537 0
912 537 0
-913 -540 0
913 540 0
-914 -543 0
914 543 0
-915 -546 0
915 546 0
-916 -549 0
916 549 0
-917 -552 0
917 552 0
-918 -555 0
918 555 0
-919 -558 0
919 558 0
-920 -561 0
920 561 0
-921 -564 0
921 564 0
-922 -567 0
922 567 0
-923 -570 0
923 570 0
-924 -573 0
924 573 0
-925 -576 0
925 576 0
-926 -579 0
926 579 0
-927 -582 0
927 582 0
-928 -585 0
928 585 0
-929 -588 0
929 588 0
-930 -591 0
930 591 0
-931 -594 0
931 594 0
-932 -597 0
932 597 0
-933 -600 0
933 600 0
-934 -603 0
934 603 0
-935 -606 0
935 606 0
-936 -609 0
936 609 0
-937 -612 0
937 612 0
-938 -615 0
938 615 0
-939 -618 0
939 618 0
-940 -621 0
940 621 0
-941 -624 0
941 624 0
-942 -627 0
942 627 0
-943 -630 0
943 630 0
-944 -633 0
944 633 0
-945 -636 0
945 636 0
-946 -639 0
946 639 0
-947 -642 0
947 642 0
-948 -645 0
948 645 0
-949 -648 0
949 648 0
-950 -650 0
950 650 0
-951 -653 0
951 653 0
-952 -655 0
952 655 0
-953 -658 0
953 658 0
-954 -661 0
954 661 0
-955 -664 0
955 664 0
-956 -667 0
956 667 0
-957 -670 0
957 670 0
-958 -673 0
958 673 0
-959 -676 0
959 676 0
-960 -679 0
960 679 0
-961 -682 0
961 682 0
-962 -685 0
962 685 0
-963 -688 0
963 688 0
-964 -691 0
964 691 0
-965 -694 0
965 694 0
-966 -697 0
966 697 0
698 0
